% demand
num_movements = 15;
loading_factor = [1150, 900, 1650, 900, 1050, 1950, 1000, 1150, 1900, 1400, 950, 1800, 850, 1250, 1900];
pickup_time = [0, 1, 2, 2, 2, 2, 3, 3, 4, 7, 7, 7, 7, 9, 9];
delivery_time = [1, 2, 4, 6, 3, 6, 6, 6, 8, 9, 10, 11, 11, 11, 11];

% transporter definition
total_capacity = 7000;
num_decks = 3;
capacity = [3000, 1000, 3000];

% ways out of decks
num_ways_out = 1;
paths_out = array3d(decks, ways_out, decks, [
% ways out of deck d1
2, 3, 0, 

% ways out of deck d2
3, 0, 0, 

% ways out of deck d3
0, 0, 0,	

]);

